============================[ Problem Statistics ]=============================
|                                                                             |
|  Number of variables:        203492                                         |
|  Number of clauses:          602144                                         |
|  Parse time:                   0.12 s                                       |
|  Eliminated clauses:           7.15 Mb                                      |
|  Simplification time:          0.49 s                                       |
|                                                                             |
============================[ Search Statistics ]==============================
| Conflicts |          ORIGINAL         |          LEARNT          | Progress |
|           |    Vars  Clauses Literals |    Limit  Clauses Lit/Cl |          |
===============================================================================
|       100 |   51938   290897  1004952 |   106662      100     11 |  0.000 % |
|       250 |   51938   290897  1004952 |   117328      250     14 |  0.000 % |
|       475 |   51938   290897  1004952 |   129061      475     17 |  0.000 % |
|       812 |   51938   290897  1004952 |   141967      812     16 |  0.000 % |
|      1318 |   51938   290897  1004952 |   156164     1318     26 |  0.000 % |
|      2077 |   51938   290897  1004952 |   171780     2077     28 |  0.000 % |
|      3216 |   51938   290897  1004952 |   188958     3216     24 |  0.000 % |
|      4924 |   51938   290897  1004952 |   207854     4924     29 |  0.000 % |
|      7486 |   51938   290897  1004952 |   228639     7486     34 |  0.000 % |
|     11330 |   51938   290897  1004952 |   251503    11330     34 |  0.000 % |
|     17096 |   51938   290897  1004952 |   276654    17096     36 |  0.000 % |
|     25745 |   51938   290897  1004952 |   304319    25745     38 |  0.000 % |
|     38719 |   51938   290897  1004952 |   334751    38719     43 |  0.000 % |
|     58180 |   51938   290897  1004952 |   368226    58180     41 |  0.000 % |
|     87372 |   51938   290897  1004952 |   405049    87372     41 |  0.000 % |
|    131161 |   51938   290897  1004952 |   445554   131161     47 |  0.000 % |
|    196845 |   51938   290897  1004952 |   490110   196845     52 |  0.000 % |
|    295371 |   51938   290897  1004952 |   539121   295371     48 |  0.000 % |
|    443160 |   51938   290897  1004952 |   593033   443160     48 |  0.000 % |
|    664843 |   51938   290897  1004952 |   652336    86130     51 |  0.000 % |
|    997368 |   51938   290897  1004952 |   717570   418655     67 |  0.000 % |
|   1496156 |   51938   290897  1004952 |   789327   216957     43 |  0.000 % |
|   2244338 |   51938   290897  1004952 |   868259   186411     87 |  0.000 % |
|   3366612 |   51938   290897  1004952 |   955085   436942     57 |  0.000 % |
|   5050023 |   51936   290889  1004933 |  1050594   246882    101 |  0.001 % |
|   7575139 |   51936   290889  1004933 |  1155653   703146     66 |  0.001 % |
|  11362814 |   51936   290889  1004933 |  1271219  1087531    147 |  0.001 % |
|  17044326 |   51935   290885  1004923 |  1398341   474265    126 |  0.002 % |
|  25566595 |   51934   290882  1004916 |  1538175   705345     68 |  0.002 % |
|  38349998 |   51931   290870  1004886 |  1691992  1328359     65 |  0.004 % |
===============================================================================
restarts              : 65531
conflicts             : 46205580       (16282 /sec)
decisions             : 160598330      (0.00 % random) (56591 /sec)
propagations          : 11464315818    (4039744 /sec)
conflict literals     : 3519971489     (14.60 % deleted)
Memory used           : 1549.90 MB
CPU time              : 2837.88 s

INDETERMINATE
File /Users/damy17/Documents/hw-uni/master-1-uvt/verificare-formala/benchmark/input-files/benchmarkfile10.cnf timed out after 2880 seconds.
